35
120
94	2
93	1
92	1
91	1
90	1
89	3
87	1
80	3
79	2
74	2
71	1
67	1
63	2
60	1
59	1
58	1
56	1
55	1
54	2
53	1
52	1
50	2
49	1
47	1
46	1
42	2
41	1
37	2
36	1
35	2
34	1
33	1
32	3
31	1
26	1
